190
19
350
346
327
124
86
395
249
207
377
443
116
383
7
348
380
427
479
15
240
206
314
324
246
6
303
348
125
374
12
373
27
252
77
497
346
24
14
493
426
340
83
290
395
277
157
111
44
332
281
432
182
368
66
89
81
214
305
409
242
363
10
174
253
231
77
305
431
239
68
373
132
488
457
193
214
268
238
277
457
109
432
43
148
241
378
280
236
202
386
276
136
30
379
398
447
465
37
444
437
309
120
161
114
263
186
160
424
4
495
191
30
239
223
471
305
275
398
106
46
241
143
140
19
174
325
71
258
168
376
328
128
260
299
292
146
117
445
42
298
326
427
275
231
373
149
176
284
264
34
312
337
15
382
54
230
138
272
324
153
112
151
6
423
173
305
443
274
268
435
406
148
449
103
200
8
354
151
423
87
13
330
491
369
263
169
5
287
427
276
340
233
243
312
297
220
390
293
134